c ren 1 -> 1
c ren 2 -> 2
c ren 3 -> 3
c ren 4 -> 4
c ren 5 -> 5
c ren 6 -> 6
c ren 7 -> 7
c ren 8 -> 8
c ren 9 -> 9
c ren 10 -> 10
c ren 11 -> 11
c ren 12 -> 12
c ren 13 -> 13
c ren 14 -> 14
c ren 15 -> 15
c ren 16 -> 16
c ren 17 -> 17
c ren 18 -> 18
c ren 19 -> 19
c ren 20 -> 20
c ren 21 -> 21
c ren 22 -> 22
c ren 23 -> 23
c ren 24 -> 24
c ren 25 -> 25
c ren 26 -> 26
c ren 27 -> 27
c ren 28 -> 28
c ren 29 -> 29
c ren 30 -> 30
c ren 31 -> 31
c ren 32 -> 32
c ren 33 -> 33
c ren 34 -> 34
c ren 35 -> 35
c ren 36 -> 36
c ren 37 -> 37
c ren 38 -> 38
c ren 39 -> 39
c ren 40 -> 40
c ren 41 -> 41
c ren 42 -> 42
c ren 43 -> 43
c ren 44 -> 44
c ren 45 -> 45
c ren 46 -> 46
c ren 47 -> 47
c ren 48 -> 48
c ren 49 -> 49
c ren 50 -> 50
c ren 51 -> 51
c ren 52 -> 52
c ren 53 -> 53
c ren 54 -> 54
c ren 55 -> 55
c ren 56 -> 56
c ren 57 -> 57
c ren 58 -> 58
c ren 59 -> 59
c ren 60 -> 60
c ren 61 -> 61
c ren 62 -> 62
c ren 63 -> 63
c ren 64 -> 64
c ren 65 -> 65
c ren 66 -> 66
c ren 67 -> 67
c ren 68 -> 68
c ren 69 -> 69
c ren 70 -> 70
c ren 71 -> 71
c ren 72 -> 72
c ren 73 -> 73
c ren 74 -> 74
c ren 75 -> 75
c ren 76 -> 76
c ren 77 -> 77
c ren 78 -> 78
c ren 79 -> 79
c ren 80 -> 80
c ren 81 -> 81
c ren 82 -> 82
c ren 83 -> 83
c ren 84 -> 84
c ren 85 -> 85
c ren 86 -> 86
c ren 87 -> 87
c ren 88 -> 88
c ren 89 -> 89
c ren 90 -> 90
c ren 91 -> 91
c ren 92 -> 92
c ren 93 -> 93
c ren 94 -> 94
c ren 95 -> 95
c ren 96 -> 96
c ren 97 -> 97
c ren 98 -> 98
c ren 99 -> 99
c ren 100 -> 100
c ren 101 -> 101
c ren 102 -> 102
c ren 105 -> 103
c ren 109 -> 104
c ren 113 -> 105
c ren 117 -> 106
c ren 121 -> 107
c ren 125 -> 108
c ren 143 -> 109
c ren 145 -> 110
c ren 149 -> 111
c ren 153 -> 112
c ren 157 -> 113
c ren 161 -> 114
c ren 167 -> 115
c ren 171 -> 116
c ren 175 -> 117
c ren 181 -> 118
c ren 185 -> 119
c ren 188 -> 120
c ren 199 -> 121
c ren 201 -> 122
c ren 205 -> 123
c ren 211 -> 124
c ren 215 -> 125
c ren 219 -> 126
c ren 225 -> 127
c ren 229 -> 128
c ren 233 -> 129
c ren 239 -> 130
c ren 243 -> 131
c ren 247 -> 132
c ren 253 -> 133
c ren 257 -> 134
c ren 263 -> 135
c ren 267 -> 136
c ren 271 -> 137
c ren 277 -> 138
c ren 281 -> 139
c ren 287 -> 140
c ren 291 -> 141
c ren 302 -> 142
c ren 303 -> 143
c ren 307 -> 144
c ren 310 -> 145
c ren 313 -> 146
c ren 316 -> 147
c ren 320 -> 148
c ren 336 -> 149
c ren 337 -> 150
c ren 340 -> 151
c ren 343 -> 152
c ren 346 -> 153
c ren 350 -> 154
c ren 356 -> 155
c ren 360 -> 156
c ren 364 -> 157
c ren 372 -> 158
c ren 376 -> 159
c ren 380 -> 160
c ren 383 -> 161
c ren 386 -> 162
c ren 389 -> 163
c ren 393 -> 164
c ren 399 -> 165
c ren 403 -> 166
c ren 407 -> 167
c ren 411 -> 168
c ren 421 -> 169
c ren 423 -> 170
c ren 429 -> 171
c ren 432 -> 172
c ren 435 -> 173
c ren 441 -> 174
c ren 445 -> 175
c ren 461 -> 176
c ren 465 -> 177
c ren 471 -> 178
c ren 475 -> 179
c ren 481 -> 180
p cnf 180 773
a 1 2 3 4 5 6 7 8 9 10 11 12 13 14 15 16 17 18 19 20 21 22 23 24 25 26 27 28 29 30 31 32 33 34 35 36 37 38 39 40 41 42 43 44 45 46 47 48 49 50 51 52 53 54 55 56 57 58 59 60 61 62 63 64 65 66 67 68 69 70 71 72 73 74 75 76 77 78 79 80 81 82 83 84 85 86 87 88 89 90 91 92 93 94 95 96 97 0
d 98 73 74 0
d 99 4 8 0
d 100 84 85 0
e 101 102 103 104 105 106 107 108 109 110 111 112 113 114 115 116 117 118 119 120 121 122 123 124 125 126 127 128 129 130 131 132 133 134 135 136 137 138 139 140 141 142 143 144 145 146 147 148 149 150 151 152 153 154 155 156 157 158 159 160 161 162 163 164 165 166 167 168 169 170 171 172 173 174 175 176 177 178 179 180 0
1 -101 0
6 -101 0
-1 -6 101 0
-10 -101 102 0
10 101 102 0
-10 101 -102 0
10 -101 -102 0
2 -11 -103 0
-2 -5 -11 103 0
5 55 143 0
-2 -5 11 -103 0
2 55 143 0
2 -55 -143 0
-2 -5 -55 143 0
103 109 0
-10 -11 -12 13 -14 15 -18 -102 -103 -104 -105 -106 -107 -108 -109 0
-9 10 11 -104 0
9 -10 -11 104 0
9 10 -11 -104 0
-9 -10 11 104 0
9 -10 11 -104 0
-9 -10 -11 -104 0
9 10 11 104 0
-9 10 -11 104 0
104 109 0
-10 -11 12 -13 -14 15 -18 -102 -103 -104 -105 -106 -107 -108 -109 0
1 -13 -105 0
-1 -7 -13 105 0
7 57 145 0
-1 -7 13 -105 0
1 57 145 0
1 -57 -145 0
-1 -7 -57 145 0
105 109 0
-10 -11 -12 -13 14 -15 -18 -102 -103 -104 -105 -106 -107 -108 -109 0
2 -16 -106 0
-2 -6 -16 106 0
6 60 146 0
-2 -6 16 -106 0
2 60 146 0
2 -60 -146 0
-2 -6 -60 146 0
106 109 0
-10 -11 12 13 14 -15 -18 -102 -103 -104 -105 -106 -107 -108 -109 0
3 -17 -107 0
-3 -5 -17 107 0
5 61 147 0
-3 -5 17 -107 0
3 61 147 0
3 -61 -147 0
-3 -5 -61 147 0
107 109 0
-15 16 17 -108 0
15 -16 -17 108 0
15 16 -17 -108 0
-15 -16 17 108 0
15 -16 17 -108 0
-15 -16 -17 -108 0
15 16 17 108 0
-15 16 -17 108 0
108 109 0
102 109 0
10 12 -13 -14 -15 18 -102 -103 -104 -105 -106 -107 -108 -109 0
11 -18 109 0
10 -18 109 0
11 -12 -13 14 15 18 -102 -103 -104 -105 -106 -107 -108 -109 0
10 -12 -13 14 15 18 -102 -103 -104 -105 -106 -107 -108 -109 0
5 -55 -143 0
10 -12 13 -14 -15 18 -102 -103 -104 -105 -106 -107 -108 -109 0
14 15 -18 109 0
10 12 13 14 15 18 -102 -103 -104 -105 -106 -107 -108 -109 0
11 -12 13 -14 -15 18 -102 -103 -104 -105 -106 -107 -108 -109 0
-10 -11 18 109 0
14 -15 18 109 0
-14 -15 -18 109 0
7 -57 -145 0
-12 13 14 109 0
-14 15 18 109 0
12 13 -14 109 0
11 12 -13 -14 -15 18 -102 -103 -104 -105 -106 -107 -108 -109 0
11 12 13 14 15 18 -102 -103 -104 -105 -106 -107 -108 -109 0
12 -13 14 109 0
5 -61 -147 0
-12 -13 -14 109 0
6 -60 -146 0
1 -20 -110 0
-1 -8 -20 110 0
8 64 150 0
-1 -8 20 -110 0
1 64 150 0
1 -64 -150 0
-1 -8 -64 150 0
110 121 0
-2 -3 -7 -8 -19 -31 -34 109 -110 -111 -112 -113 -114 -115 -116 -117 -118 -119 -120 -121 0
2 -23 -111 0
-2 -7 -23 111 0
7 67 151 0
-2 -7 23 -111 0
2 67 151 0
2 -67 -151 0
-2 -7 -67 151 0
111 121 0
-2 3 -8 -19 -31 34 109 -110 -111 -112 -113 -114 -115 -116 -117 -118 -119 -120 -121 0
3 -26 -112 0
-3 -6 -26 112 0
6 70 152 0
-3 -6 26 -112 0
3 70 152 0
3 -70 -152 0
-3 -6 -70 152 0
112 121 0
-2 7 -8 -19 -31 34 109 -110 -111 -112 -113 -114 -115 -116 -117 -118 -119 -120 -121 0
4 -27 -113 0
-4 -5 -27 113 0
5 71 153 0
-4 -5 27 -113 0
4 71 153 0
4 -71 -153 0
-4 -5 -71 153 0
113 121 0
2 -3 -7 -19 31 -34 109 -110 -111 -112 -113 -114 -115 -116 -117 -118 -119 -120 -121 0
-25 26 27 -114 0
25 -26 -27 114 0
25 26 -27 -114 0
-25 -26 27 114 0
25 -26 27 -114 0
-25 -26 -27 -114 0
25 26 27 114 0
-25 26 -27 114 0
114 121 0
2 3 -19 31 34 109 -110 -111 -112 -113 -114 -115 -116 -117 -118 -119 -120 -121 0
15 16 -28 -115 0
-15 -18 -28 115 0
17 18 28 115 0
15 17 -28 -115 0
-16 -17 -28 115 0
17 18 -28 -115 0
15 16 28 115 0
16 18 28 115 0
-16 -17 28 -115 0
16 18 -28 -115 0
-15 -18 28 -115 0
15 17 28 115 0
115 121 0
2 7 -19 31 34 109 -110 -111 -112 -113 -114 -115 -116 -117 -118 -119 -120 -121 0
-24 25 28 -116 0
24 -25 -28 116 0
24 25 -28 -116 0
-24 -25 28 116 0
24 -25 28 -116 0
-24 -25 -28 -116 0
24 25 28 116 0
-24 25 -28 116 0
116 121 0
-3 -7 8 -19 31 -34 109 -110 -111 -112 -113 -114 -115 -116 -117 -118 -119 -120 -121 0
-22 23 24 -117 0
22 -23 -24 117 0
22 23 -24 -117 0
-22 -23 24 117 0
22 -23 24 -117 0
-22 -23 -24 -117 0
22 23 24 117 0
-22 23 -24 117 0
117 121 0
3 8 -19 31 34 109 -110 -111 -112 -113 -114 -115 -116 -117 -118 -119 -120 -121 0
14 29 118 0
-13 -14 -29 118 0
14 -29 -118 0
13 29 118 0
-13 -14 29 -118 0
13 -29 -118 0
118 121 0
7 8 -19 31 34 109 -110 -111 -112 -113 -114 -115 -116 -117 -118 -119 -120 -121 0
-21 22 29 -119 0
21 -22 -29 119 0
21 22 -29 -119 0
-21 -22 29 119 0
21 -22 29 -119 0
-21 -22 -29 -119 0
21 22 29 119 0
-21 22 -29 119 0
119 121 0
-2 -3 -7 -8 19 -31 -34 109 -110 -111 -112 -113 -114 -115 -116 -117 -118 -119 120 -121 0
-20 21 120 0
20 -21 120 0
-20 -21 -120 0
20 21 -120 0
2 -3 -7 19 31 -34 109 -110 -111 -112 -113 -114 -115 -116 -117 -118 -119 120 -121 0
-2 3 -8 19 -31 34 109 -110 -111 -112 -113 -114 -115 -116 -117 -118 -119 120 -121 0
2 3 19 31 34 109 -110 -111 -112 -113 -114 -115 -116 -117 -118 -119 120 -121 0
-2 7 -8 19 -31 34 109 -110 -111 -112 -113 -114 -115 -116 -117 -118 -119 120 -121 0
2 7 19 31 34 109 -110 -111 -112 -113 -114 -115 -116 -117 -118 -119 120 -121 0
2 -76 -161 0
-2 -8 -76 161 0
6 -70 -152 0
-2 -8 31 121 0
3 8 19 31 34 109 -110 -111 -112 -113 -114 -115 -116 -117 -118 -119 120 -121 0
2 76 161 0
7 -67 -151 0
7 8 19 31 34 109 -110 -111 -112 -113 -114 -115 -116 -117 -118 -119 120 -121 0
2 -31 121 0
3 -79 -162 0
-3 -7 -79 162 0
7 -79 -162 0
-3 -7 34 121 0
8 -31 121 0
3 79 162 0
5 -71 -153 0
7 79 162 0
7 -34 121 0
4 -37 -122 0
-4 -6 -37 122 0
6 82 163 0
-4 -6 37 -122 0
4 82 163 0
4 -82 -163 0
-4 -6 -82 163 0
122 142 0
-42 -43 -52 -54 -101 121 -122 -123 -124 -125 -126 -127 -128 -129 -130 -131 -132 -133 -134 -135 -136 -137 -138 -139 -140 -141 -142 0
-36 37 -123 0
-36 -37 123 0
36 -37 -123 0
36 37 123 0
123 142 0
-42 -43 -52 54 101 121 -122 -123 -124 -125 -126 -127 -128 -129 -130 -131 -132 -133 -134 -135 -136 -137 -138 -139 -140 -141 -142 0
-19 120 121 0
25 26 -38 -124 0
-25 -28 -38 124 0
27 28 38 124 0
25 27 -38 -124 0
-26 -27 -38 124 0
27 28 -38 -124 0
25 26 38 124 0
26 28 38 124 0
19 -120 121 0
-26 -27 38 -124 0
26 28 -38 -124 0
-25 -28 38 -124 0
25 27 38 124 0
124 142 0
-41 -48 -52 -54 -101 121 -122 -123 -124 -125 -126 -127 -128 -129 -130 -131 -132 -133 -134 -135 -136 -137 -138 -139 -140 -141 -142 0
-35 36 38 -125 0
35 -36 -38 125 0
35 36 -38 -125 0
-35 -36 38 125 0
35 -36 38 -125 0
-35 -36 -38 -125 0
35 36 38 125 0
-35 36 -38 125 0
125 142 0
-41 -48 -52 54 101 121 -122 -123 -124 -125 -126 -127 -128 -129 -130 -131 -132 -133 -134 -135 -136 -137 -138 -139 -140 -141 -142 0
-33 34 35 -126 0
33 -34 -35 126 0
33 34 -35 -126 0
-33 -34 35 126 0
33 -34 35 -126 0
-33 -34 -35 -126 0
33 34 35 126 0
-33 34 -35 126 0
126 142 0
22 23 -39 -127 0
-22 -29 -39 127 0
24 29 39 127 0
22 24 -39 -127 0
-23 -24 -39 127 0
24 29 -39 -127 0
22 23 39 127 0
23 29 39 127 0
-23 -24 39 -127 0
23 29 -39 -127 0
-22 -29 39 -127 0
22 24 39 127 0
127 142 0
-32 33 39 -128 0
32 -33 -39 128 0
32 33 -39 -128 0
-32 -33 39 128 0
32 -33 39 -128 0
-32 -33 -39 -128 0
32 33 39 128 0
-32 33 -39 128 0
128 142 0
41 43 52 -54 -101 121 -122 -123 -124 -125 -126 -127 -128 -129 -130 -131 -132 -133 -134 -135 -136 -137 -138 -139 -140 -141 -142 0
-30 31 32 -129 0
30 -31 -32 129 0
30 31 -32 -129 0
-30 -31 32 129 0
30 -31 32 -129 0
-30 -31 -32 -129 0
30 31 32 129 0
-30 31 -32 129 0
129 142 0
41 43 52 54 101 121 -122 -123 -124 -125 -126 -127 -128 -129 -130 -131 -132 -133 -134 -135 -136 -137 -138 -139 -140 -141 -142 0
21 40 130 0
21 -40 -130 0
-20 -21 -40 130 0
20 40 130 0
-20 -21 40 -130 0
20 -40 -130 0
130 142 0
42 48 52 -54 -101 121 -122 -123 -124 -125 -126 -127 -128 -129 -130 -131 -132 -133 -134 -135 -136 -137 -138 -139 -140 -141 -142 0
3 -42 -131 0
-3 -8 -42 131 0
8 88 172 0
-3 -8 42 -131 0
3 88 172 0
3 -88 -172 0
-3 -8 -88 172 0
131 142 0
42 48 52 54 101 121 -122 -123 -124 -125 -126 -127 -128 -129 -130 -131 -132 -133 -134 -135 -136 -137 -138 -139 -140 -141 -142 0
4 -45 -132 0
-4 -7 -45 132 0
7 91 173 0
-4 -7 45 -132 0
4 91 173 0
4 -91 -173 0
-4 -7 -91 173 0
132 142 0
43 48 52 -54 -101 121 -122 -123 -124 -125 -126 -127 -128 -129 -130 -131 -132 -133 -134 -135 -136 -137 -138 -139 -140 -141 -142 0
36 -46 -133 0
-36 -38 -46 133 0
38 46 133 0
38 -46 -133 0
-36 -38 46 -133 0
36 46 133 0
133 142 0
43 48 52 54 101 121 -122 -123 -124 -125 -126 -127 -128 -129 -130 -131 -132 -133 -134 -135 -136 -137 -138 -139 -140 -141 -142 0
-44 45 46 -134 0
44 -45 -46 134 0
44 45 -46 -134 0
-44 -45 46 134 0
44 -45 46 -134 0
-44 -45 -46 -134 0
44 45 46 134 0
-44 45 -46 134 0
134 142 0
-121 142 0
33 34 -47 -135 0
-33 -39 -47 135 0
35 39 47 135 0
33 35 -47 -135 0
-34 -35 -47 135 0
35 39 -47 -135 0
33 34 47 135 0
34 39 47 135 0
-34 -35 47 -135 0
34 39 -47 -135 0
-33 -39 47 -135 0
135 142 0
6 -82 -163 0
-43 44 47 -136 0
43 -44 -47 136 0
43 44 -47 -136 0
-43 -44 47 136 0
43 -44 47 -136 0
-43 -44 -47 -136 0
43 44 47 136 0
-43 44 -47 136 0
136 142 0
-41 42 43 -137 0
41 -42 -43 137 0
41 42 -43 -137 0
-41 -42 43 137 0
41 -42 43 -137 0
-41 -42 -43 -137 0
41 42 43 137 0
-41 42 -43 137 0
137 142 0
30 31 -48 -138 0
-30 -40 -48 138 0
32 40 48 138 0
30 32 -48 -138 0
-31 -32 -48 138 0
32 40 -48 -138 0
30 31 48 138 0
31 40 48 138 0
-31 -32 48 -138 0
31 40 -48 -138 0
-30 -40 48 -138 0
138 142 0
4 -50 -139 0
-4 -8 -50 139 0
-4 -8 50 -139 0
8 50 139 0
8 -50 -139 0
4 50 139 0
139 142 0
44 45 -51 -140 0
-44 -47 -51 140 0
46 47 51 140 0
44 46 -51 -140 0
-45 -46 -51 140 0
46 47 -51 -140 0
45 47 51 140 0
-45 -46 51 -140 0
45 47 -51 -140 0
-44 -47 51 -140 0
44 46 51 140 0
140 142 0
-49 50 51 -141 0
49 -50 -51 141 0
49 50 -51 -141 0
-49 -50 51 141 0
49 -50 51 -141 0
-49 -50 -51 -141 0
49 50 51 141 0
-49 50 -51 141 0
141 142 0
8 -88 -172 0
42 48 -52 142 0
-41 -48 52 142 0
41 42 -52 142 0
41 43 -52 142 0
7 -91 -173 0
43 48 -52 142 0
-54 101 142 0
-42 -43 52 142 0
54 -101 142 0
-2 -5 55 -143 0
5 11 103 0
5 -11 -103 0
2 11 103 0
143 149 0
-54 -55 -56 57 -58 59 -62 142 -143 -144 -145 -146 -147 -148 -149 0
-53 54 55 -144 0
53 -54 -55 144 0
53 54 -55 -144 0
-53 -54 55 144 0
53 -54 55 -144 0
-53 -54 -55 -144 0
53 54 55 144 0
-53 54 -55 144 0
144 149 0
-54 -55 56 -57 -58 59 -62 142 -143 -144 -145 -146 -147 -148 -149 0
-1 -7 57 -145 0
7 13 105 0
7 -13 -105 0
1 13 105 0
145 149 0
-54 -55 -56 -57 58 -59 -62 142 -143 -144 -145 -146 -147 -148 -149 0
-2 -6 60 -146 0
6 16 106 0
6 -16 -106 0
2 16 106 0
146 149 0
-54 -55 56 57 58 -59 -62 142 -143 -144 -145 -146 -147 -148 -149 0
-3 -5 61 -147 0
5 17 107 0
5 -17 -107 0
3 17 107 0
147 149 0
-59 60 61 -148 0
59 -60 -61 148 0
59 60 -61 -148 0
-59 -60 61 148 0
59 -60 61 -148 0
-59 -60 -61 -148 0
59 60 61 148 0
-59 60 -61 148 0
148 149 0
55 56 57 58 59 62 142 -143 -144 -145 -146 -147 -148 -149 0
-142 149 0
54 56 -57 -58 -59 62 142 -143 -144 -145 -146 -147 -148 -149 0
55 -62 149 0
55 -56 -57 58 59 62 142 -143 -144 -145 -146 -147 -148 -149 0
54 -56 -57 58 59 62 142 -143 -144 -145 -146 -147 -148 -149 0
54 -56 57 -58 -59 62 142 -143 -144 -145 -146 -147 -148 -149 0
58 59 -62 149 0
54 56 57 58 59 62 142 -143 -144 -145 -146 -147 -148 -149 0
55 -56 57 -58 -59 62 142 -143 -144 -145 -146 -147 -148 -149 0
54 -62 149 0
-54 -55 62 149 0
58 -59 62 149 0
-58 -59 -62 149 0
-56 57 58 149 0
-58 59 62 149 0
56 57 -58 149 0
55 56 -57 -58 -59 62 142 -143 -144 -145 -146 -147 -148 -149 0
56 -57 58 149 0
-56 -57 -58 149 0
-1 -8 64 -150 0
8 20 110 0
8 -20 -110 0
1 20 110 0
150 169 0
-67 -68 73 -77 -78 -85 100 149 -150 -151 -152 -153 -154 -155 -156 -157 -158 -159 -160 -161 -162 -163 -164 -165 -166 -167 -168 -169 0
-2 -7 67 -151 0
7 23 111 0
7 -23 -111 0
2 23 111 0
151 169 0
-67 -68 73 -77 78 -85 -100 149 -150 -151 -152 -153 -154 -155 -156 -157 -158 -159 -160 -161 -162 -163 -164 -165 -166 -167 -168 -169 0
-3 -6 70 -152 0
6 26 112 0
6 -26 -112 0
3 26 112 0
152 169 0
-67 -68 73 77 -78 -85 -100 149 -150 -151 -152 -153 -154 -155 -156 -157 -158 -159 -160 -161 -162 -163 -164 -165 -166 -167 -168 -169 0
-4 -5 71 -153 0
5 27 113 0
5 -27 -113 0
4 27 113 0
153 169 0
-67 -68 73 77 78 -85 100 149 -150 -151 -152 -153 -154 -155 -156 -157 -158 -159 -160 -161 -162 -163 -164 -165 -166 -167 -168 -169 0
-69 70 71 -154 0
69 -70 -71 154 0
69 70 -71 -154 0
-69 -70 71 154 0
69 -70 71 -154 0
-69 -70 -71 -154 0
69 70 71 154 0
-69 70 -71 154 0
154 169 0
67 73 -77 -78 85 100 149 -150 -151 -152 -153 -154 -155 -156 -157 -158 -159 -160 -161 -162 -163 -164 -165 -166 -167 -168 -169 0
59 60 -72 -155 0
-59 -62 -72 155 0
61 62 72 155 0
59 61 -72 -155 0
-60 -61 -72 155 0
61 62 -72 -155 0
59 60 72 155 0
60 62 72 155 0
-60 -61 72 -155 0
60 62 -72 -155 0
-59 -62 72 -155 0
59 61 72 155 0
155 169 0
67 73 -77 78 85 -100 149 -150 -151 -152 -153 -154 -155 -156 -157 -158 -159 -160 -161 -162 -163 -164 -165 -166 -167 -168 -169 0
-68 69 72 -156 0
68 -69 -72 156 0
68 69 -72 -156 0
-68 -69 72 156 0
68 -69 72 -156 0
-68 -69 -72 -156 0
68 69 72 156 0
-68 69 -72 156 0
156 169 0
67 73 77 -78 85 -100 149 -150 -151 -152 -153 -154 -155 -156 -157 -158 -159 -160 -161 -162 -163 -164 -165 -166 -167 -168 -169 0
-66 67 68 -157 0
66 -67 -68 157 0
66 67 -68 -157 0
-66 -67 68 157 0
66 -67 68 -157 0
-66 -67 -68 -157 0
66 67 68 157 0
-66 67 -68 157 0
157 169 0
67 73 77 78 85 100 149 -150 -151 -152 -153 -154 -155 -156 -157 -158 -159 -160 -161 -162 -163 -164 -165 -166 -167 -168 -169 0
-73 169 0
68 73 -77 -78 85 100 149 -150 -151 -152 -153 -154 -155 -156 -157 -158 -159 -160 -161 -162 -163 -164 -165 -166 -167 -168 -169 0
57 -74 -158 0
-57 -58 -74 158 0
-57 -58 74 -158 0
58 74 158 0
58 -74 -158 0
57 74 158 0
158 169 0
68 73 -77 78 85 -100 149 -150 -151 -152 -153 -154 -155 -156 -157 -158 -159 -160 -161 -162 -163 -164 -165 -166 -167 -168 -169 0
-65 66 98 -159 0
65 -66 -98 159 0
65 66 -98 -159 0
-65 -66 98 159 0
65 -66 98 -159 0
-65 -66 -98 -159 0
65 66 98 159 0
-65 66 -98 159 0
159 169 0
68 73 77 -78 85 -100 149 -150 -151 -152 -153 -154 -155 -156 -157 -158 -159 -160 -161 -162 -163 -164 -165 -166 -167 -168 -169 0
-63 64 65 -160 0
63 -64 -65 160 0
63 64 -65 -160 0
-63 -64 65 160 0
63 -64 65 -160 0
-63 -64 -65 -160 0
63 64 65 160 0
-63 64 -65 160 0
160 169 0
68 73 77 78 85 100 149 -150 -151 -152 -153 -154 -155 -156 -157 -158 -159 -160 -161 -162 -163 -164 -165 -166 -167 -168 -169 0
-2 -8 76 -161 0
-109 121 0
8 -64 -150 0
-3 -7 8 19 31 -34 109 -110 -111 -112 -113 -114 -115 -116 -117 -118 -119 120 -121 0
161 169 0
-149 169 0
-3 -7 79 -162 0
8 -76 -161 0
3 -34 121 0
8 76 161 0
162 169 0
-4 -6 82 -163 0
6 37 122 0
6 -37 -122 0
4 37 122 0
163 169 0
-81 82 -164 0
-81 -82 164 0
81 -82 -164 0
81 82 164 0
164 169 0
69 70 -83 -165 0
-69 -72 -83 165 0
71 72 83 165 0
69 71 -83 -165 0
-70 -71 -83 165 0
71 72 -83 -165 0
69 70 83 165 0
70 72 83 165 0
-70 -71 83 -165 0
70 72 -83 -165 0
-69 -72 83 -165 0
165 169 0
-80 81 83 -166 0
80 -81 -83 166 0
80 81 -83 -166 0
-80 -81 83 166 0
80 -81 83 -166 0
-80 -81 -83 -166 0
80 81 83 166 0
-80 81 -83 166 0
166 169 0
-78 79 80 -167 0
78 -79 -80 167 0
78 79 -80 -167 0
-78 -79 80 167 0
78 -79 80 -167 0
-78 -79 -80 -167 0
78 79 80 167 0
-78 79 -80 167 0
167 169 0
66 -84 -168 0
-66 -84 -98 168 0
-66 84 -98 -168 0
84 98 168 0
-84 98 -168 0
66 84 168 0
168 169 0
-67 -68 85 169 0
-77 78 100 169 0
77 78 -100 169 0
77 -78 100 169 0
67 -85 169 0
-77 -78 -100 169 0
68 -85 169 0
-75 76 77 -170 0
75 -76 -77 170 0
75 76 -77 -170 0
-75 -76 77 170 0
75 -76 77 -170 0
-75 -76 -77 -170 0
75 76 77 170 0
-75 76 -77 170 0
170 176 0
-79 -80 -87 88 -89 90 -93 169 -170 -171 -172 -173 -174 -175 -176 0
65 86 171 0
-64 -65 -86 171 0
65 -86 -171 0
64 86 171 0
-64 -65 86 -171 0
64 -86 -171 0
171 176 0
-79 -80 87 -88 -89 90 -93 169 -170 -171 -172 -173 -174 -175 -176 0
-3 -8 88 -172 0
8 42 131 0
8 -42 -131 0
3 42 131 0
172 176 0
-79 -80 -87 -88 89 -90 -93 169 -170 -171 -172 -173 -174 -175 -176 0
-4 -7 91 -173 0
7 45 132 0
7 -45 -132 0
4 45 132 0
173 176 0
-79 -80 87 88 89 -90 -93 169 -170 -171 -172 -173 -174 -175 -176 0
81 -92 -174 0
-81 -83 -92 174 0
83 92 174 0
83 -92 -174 0
-81 -83 92 -174 0
81 92 174 0
174 176 0
-78 -87 88 -89 90 -93 -100 169 -170 -171 -172 -173 -174 -175 -176 0
-90 91 92 -175 0
90 -91 -92 175 0
90 91 -92 -175 0
-90 -91 92 175 0
90 -91 92 -175 0
-90 -91 -92 -175 0
90 91 92 175 0
-90 91 -92 175 0
175 176 0
-78 87 -88 -89 90 -93 -100 169 -170 -171 -172 -173 -174 -175 -176 0
78 80 87 88 89 90 93 169 -170 -171 -172 -173 -174 -175 -176 0
78 79 -87 -88 89 90 93 169 -170 -171 -172 -173 -174 -175 -176 0
-169 176 0
79 87 -88 -89 -90 93 100 169 -170 -171 -172 -173 -174 -175 -176 0
-78 -87 -88 89 -90 -93 -100 169 -170 -171 -172 -173 -174 -175 -176 0
78 80 -87 88 -89 -90 93 169 -170 -171 -172 -173 -174 -175 -176 0
78 79 87 -88 -89 -90 93 169 -170 -171 -172 -173 -174 -175 -176 0
78 80 -87 -88 89 90 93 169 -170 -171 -172 -173 -174 -175 -176 0
78 80 87 -88 -89 -90 93 169 -170 -171 -172 -173 -174 -175 -176 0
80 -87 -88 89 90 93 100 169 -170 -171 -172 -173 -174 -175 -176 0
-78 87 88 89 -90 -93 -100 169 -170 -171 -172 -173 -174 -175 -176 0
79 -87 -88 89 90 93 100 169 -170 -171 -172 -173 -174 -175 -176 0
79 -87 88 -89 -90 93 100 169 -170 -171 -172 -173 -174 -175 -176 0
78 79 87 88 89 90 93 169 -170 -171 -172 -173 -174 -175 -176 0
79 87 88 89 90 93 100 169 -170 -171 -172 -173 -174 -175 -176 0
78 79 -87 88 -89 -90 93 169 -170 -171 -172 -173 -174 -175 -176 0
80 -87 88 -89 -90 93 100 169 -170 -171 -172 -173 -174 -175 -176 0
80 87 -88 -89 -90 93 100 169 -170 -171 -172 -173 -174 -175 -176 0
80 87 88 89 90 93 100 169 -170 -171 -172 -173 -174 -175 -176 0
-75 -86 -94 177 0
77 86 94 177 0
-76 -77 -94 177 0
75 76 94 177 0
76 86 94 177 0
75 77 94 177 0
-49 -52 97 99 176 -177 -178 -179 -180 0
-90 -93 -96 178 0
92 93 96 178 0
-91 -92 -96 178 0
90 91 96 178 0
91 93 96 178 0
90 92 96 178 0
50 52 -96 -99 176 -177 -178 -179 -180 0
95 -96 -99 179 0
-95 96 -99 179 0
95 96 99 179 0
-95 -96 99 179 0
51 52 -96 -99 176 -177 -178 -179 -180 0
-87 -94 -97 180 0
89 94 97 180 0
-88 -89 -97 180 0
88 94 97 180 0
87 89 97 180 0
49 50 -96 -99 176 -177 -178 -179 -180 0
-9 53 176 -177 -178 -179 -180 0
9 -53 176 -177 -178 -179 -180 0
12 -56 176 -177 -178 -179 -180 0
-12 56 176 -177 -178 -179 -180 0
-19 63 176 -177 -178 -179 -180 0
-30 -40 -86 176 -177 -178 -179 -180 0
30 40 -75 176 -177 -178 -179 -180 0
19 -63 176 -177 -178 -179 -180 0
41 48 87 -94 176 -177 -178 -179 -180 0
-30 40 75 86 176 -177 -178 -179 -180 0
30 40 -86 176 -177 -178 -179 -180 0
-41 48 -87 -94 176 -177 -178 -179 -180 0
-41 48 87 94 176 -177 -178 -179 -180 0
41 -48 -87 -94 176 -177 -178 -179 -180 0
30 -40 75 86 176 -177 -178 -179 -180 0
-30 -40 -75 176 -177 -178 -179 -180 0
49 52 95 -97 176 -177 -178 -179 -180 0
-41 -48 -87 94 176 -177 -178 -179 -180 0
41 -48 87 94 176 -177 -178 -179 -180 0
-49 52 -95 -97 176 -177 -178 -179 -180 0
-49 52 95 97 176 -177 -178 -179 -180 0
49 -52 -95 -97 176 -177 -178 -179 -180 0
41 48 -87 94 176 -177 -178 -179 -180 0
-41 -48 87 -94 176 -177 -178 -179 -180 0
-49 -52 96 97 176 -177 -178 -179 -180 0
-49 -52 95 -97 176 -177 -178 -179 -180 0
49 -52 95 97 176 -177 -178 -179 -180 0
50 52 -95 -97 176 -177 -178 -179 -180 0
49 51 -96 -99 176 -177 -178 -179 -180 0
-50 -51 95 99 176 -177 -178 -179 -180 0
-49 -52 -95 97 176 -177 -178 -179 -180 0
49 51 -95 -97 176 -177 -178 -179 -180 0
-50 -51 96 97 176 -177 -178 -179 -180 0
-50 -51 97 99 176 -177 -178 -179 -180 0
49 50 -95 -97 176 -177 -178 -179 -180 0
49 52 -95 97 176 -177 -178 -179 -180 0
51 52 -95 -97 176 -177 -178 -179 -180 0
-49 -52 95 99 176 -177 -178 -179 -180 0
